900 1
1 2 1
1 31 1
2 3 1
2 32 1
3 4 1
3 33 1
4 5 1
4 34 1
5 6 1
5 35 1
6 7 1
6 36 1
7 8 1
7 37 1
8 9 1
8 38 1
9 10 1
9 39 1
10 11 1
10 40 1
11 12 1
11 41 1
12 13 1
12 42 1
13 14 1
13 43 1
14 15 1
14 44 1
15 16 1
15 45 1
16 17 1
16 46 1
17 18 1
17 47 1
18 19 1
18 48 1
19 20 1
19 49 1
20 21 1
20 50 1
21 22 1
21 51 1
22 23 1
22 52 1
23 24 1
23 53 1
24 25 1
24 54 1
25 26 1
25 55 1
26 27 1
26 56 1
27 28 1
27 57 1
28 29 1
28 58 1
29 30 1
29 59 1
30 60 1
31 32 1
31 61 1
32 33 1
32 62 1
33 34 1
33 63 1
34 35 1
34 64 1
35 36 1
35 65 1
36 37 1
36 66 1
37 38 1
37 67 1
38 39 1
38 68 1
39 40 1
39 69 1
40 41 1
40 70 1
41 42 1
41 71 1
42 43 1
42 72 1
43 44 1
43 73 1
44 45 1
44 74 1
45 46 1
45 75 1
46 47 1
46 76 1
47 48 1
47 77 1
48 49 1
48 78 1
49 50 1
49 79 1
50 51 1
50 80 1
51 52 1
51 81 1
52 53 1
52 82 1
53 54 1
53 83 1
54 55 1
54 84 1
55 56 1
55 85 1
56 57 1
56 86 1
57 58 1
57 87 1
58 59 1
58 88 1
59 60 1
59 89 1
60 90 1
61 62 1
61 91 1
62 63 1
62 92 1
63 64 1
63 93 1
64 65 1
64 94 1
65 66 1
65 95 1
66 67 1
66 96 1
67 68 1
67 97 1
68 69 1
68 98 1
69 70 1
69 99 1
70 71 1
70 100 1
71 72 1
71 101 1
72 73 1
72 102 1
73 74 1
73 103 1
74 75 1
74 104 1
75 76 1
75 105 1
76 77 1
76 106 1
77 78 1
77 107 1
78 79 1
78 108 1
79 80 1
79 109 1
80 81 1
80 110 1
81 82 1
81 111 1
82 83 1
82 112 1
83 84 1
83 113 1
84 85 1
84 114 1
85 86 1
85 115 1
86 87 1
86 116 1
87 88 1
87 117 1
88 89 1
88 118 1
89 90 1
89 119 1
90 120 1
91 92 1
91 121 1
92 93 1
92 122 1
93 94 1
93 123 1
94 95 1
94 124 1
95 96 1
95 125 1
96 97 1
96 126 1
97 98 1
97 127 1
98 99 1
98 128 1
99 100 1
99 129 1
100 101 1
100 130 1
101 102 1
101 131 1
102 103 1
102 132 1
103 104 1
103 133 1
104 105 1
104 134 1
105 106 1
105 135 1
106 107 1
106 136 1
107 108 1
107 137 1
108 109 1
108 138 1
109 110 1
109 139 1
110 111 1
110 140 1
111 112 1
111 141 1
112 113 1
112 142 1
113 114 1
113 143 1
114 115 1
114 144 1
115 116 1
115 145 1
116 117 1
116 146 1
117 118 1
117 147 1
118 119 1
118 148 1
119 120 1
119 149 1
120 150 1
121 122 1
121 151 1
122 123 1
122 152 1
123 124 1
123 153 1
124 125 1
124 154 1
125 126 1
125 155 1
126 127 1
126 156 1
127 128 1
127 157 1
128 129 1
128 158 1
129 130 1
129 159 1
130 131 1
130 160 1
131 132 1
131 161 1
132 133 1
132 162 1
133 134 1
133 163 1
134 135 1
134 164 1
135 136 1
135 165 1
136 137 1
136 166 1
137 138 1
137 167 1
138 139 1
138 168 1
139 140 1
139 169 1
140 141 1
140 170 1
141 142 1
141 171 1
142 143 1
142 172 1
143 144 1
143 173 1
144 145 1
144 174 1
145 146 1
145 175 1
146 147 1
146 176 1
147 148 1
147 177 1
148 149 1
148 178 1
149 150 1
149 179 1
150 180 1
151 152 1
151 181 1
152 153 1
152 182 1
153 154 1
153 183 1
154 155 1
154 184 1
155 156 1
155 185 1
156 157 1
156 186 1
157 158 1
157 187 1
158 159 1
158 188 1
159 160 1
159 189 1
160 161 1
160 190 1
161 162 1
161 191 1
162 163 1
162 192 1
163 164 1
163 193 1
164 165 1
164 194 1
165 166 1
165 195 1
166 167 1
166 196 1
167 168 1
167 197 1
168 169 1
168 198 1
169 170 1
169 199 1
170 171 1
170 200 1
171 172 1
171 201 1
172 173 1
172 202 1
173 174 1
173 203 1
174 175 1
174 204 1
175 176 1
175 205 1
176 177 1
176 206 1
177 178 1
177 207 1
178 179 1
178 208 1
179 180 1
179 209 1
180 210 1
181 182 1
181 211 1
182 183 1
182 212 1
183 184 1
183 213 1
184 185 1
184 214 1
185 186 1
185 215 1
186 187 1
186 216 1
187 188 1
187 217 1
188 189 1
188 218 1
189 190 1
189 219 1
190 191 1
190 220 1
191 192 1
191 221 1
192 193 1
192 222 1
193 194 1
193 223 1
194 195 1
194 224 1
195 196 1
195 225 1
196 197 1
196 226 1
197 198 1
197 227 1
198 199 1
198 228 1
199 200 1
199 229 1
200 201 1
200 230 1
201 202 1
201 231 1
202 203 1
202 232 1
203 204 1
203 233 1
204 205 1
204 234 1
205 206 1
205 235 1
206 207 1
206 236 1
207 208 1
207 237 1
208 209 1
208 238 1
209 210 1
209 239 1
210 240 1
211 212 1
211 241 1
212 213 1
212 242 1
213 214 1
213 243 1
214 215 1
214 244 1
215 216 1
215 245 1
216 217 1
216 246 1
217 218 1
217 247 1
218 219 1
218 248 1
219 220 1
219 249 1
220 221 1
220 250 1
221 222 1
221 251 1
222 223 1
222 252 1
223 224 1
223 253 1
224 225 1
224 254 1
225 226 1
225 255 1
226 227 1
226 256 1
227 228 1
227 257 1
228 229 1
228 258 1
229 230 1
229 259 1
230 231 1
230 260 1
231 232 1
231 261 1
232 233 1
232 262 1
233 234 1
233 263 1
234 235 1
234 264 1
235 236 1
235 265 1
236 237 1
236 266 1
237 238 1
237 267 1
238 239 1
238 268 1
239 240 1
239 269 1
240 270 1
241 242 1
241 271 1
242 243 1
242 272 1
243 244 1
243 273 1
244 245 1
244 274 1
245 246 1
245 275 1
246 247 1
246 276 1
247 248 1
247 277 1
248 249 1
248 278 1
249 250 1
249 279 1
250 251 1
250 280 1
251 252 1
251 281 1
252 253 1
252 282 1
253 254 1
253 283 1
254 255 1
254 284 1
255 256 1
255 285 1
256 257 1
256 286 1
257 258 1
257 287 1
258 259 1
258 288 1
259 260 1
259 289 1
260 261 1
260 290 1
261 262 1
261 291 1
262 263 1
262 292 1
263 264 1
263 293 1
264 265 1
264 294 1
265 266 1
265 295 1
266 267 1
266 296 1
267 268 1
267 297 1
268 269 1
268 298 1
269 270 1
269 299 1
270 300 1
271 272 1
271 301 1
272 273 1
272 302 1
273 274 1
273 303 1
274 275 1
274 304 1
275 276 1
275 305 1
276 277 1
276 306 1
277 278 1
277 307 1
278 279 1
278 308 1
279 280 1
279 309 1
280 281 1
280 310 1
281 282 1
281 311 1
282 283 1
282 312 1
283 284 1
283 313 1
284 285 1
284 314 1
285 286 1
285 315 1
286 287 1
286 316 1
287 288 1
287 317 1
288 289 1
288 318 1
289 290 1
289 319 1
290 291 1
290 320 1
291 292 1
291 321 1
292 293 1
292 322 1
293 294 1
293 323 1
294 295 1
294 324 1
295 296 1
295 325 1
296 297 1
296 326 1
297 298 1
297 327 1
298 299 1
298 328 1
299 300 1
299 329 1
300 330 1
301 302 1
301 331 1
302 303 1
302 332 1
303 304 1
303 333 1
304 305 1
304 334 1
305 306 1
305 335 1
306 307 1
306 336 1
307 308 1
307 337 1
308 309 1
308 338 1
309 310 1
309 339 1
310 311 1
310 340 1
311 312 1
311 341 1
312 313 1
312 342 1
313 314 1
313 343 1
314 315 1
314 344 1
315 316 1
315 345 1
316 317 1
316 346 1
317 318 1
317 347 1
318 319 1
318 348 1
319 320 1
319 349 1
320 321 1
320 350 1
321 322 1
321 351 1
322 323 1
322 352 1
323 324 1
323 353 1
324 325 1
324 354 1
325 326 1
325 355 1
326 327 1
326 356 1
327 328 1
327 357 1
328 329 1
328 358 1
329 330 1
329 359 1
330 360 1
331 332 1
331 361 1
332 333 1
332 362 1
333 334 1
333 363 1
334 335 1
334 364 1
335 336 1
335 365 1
336 337 1
336 366 1
337 338 1
337 367 1
338 339 1
338 368 1
339 340 1
339 369 1
340 341 1
340 370 1
341 342 1
341 371 1
342 343 1
342 372 1
343 344 1
343 373 1
344 345 1
344 374 1
345 346 1
345 375 1
346 347 1
346 376 1
347 348 1
347 377 1
348 349 1
348 378 1
349 350 1
349 379 1
350 351 1
350 380 1
351 352 1
351 381 1
352 353 1
352 382 1
353 354 1
353 383 1
354 355 1
354 384 1
355 356 1
355 385 1
356 357 1
356 386 1
357 358 1
357 387 1
358 359 1
358 388 1
359 360 1
359 389 1
360 390 1
361 362 1
361 391 1
362 363 1
362 392 1
363 364 1
363 393 1
364 365 1
364 394 1
365 366 1
365 395 1
366 367 1
366 396 1
367 368 1
367 397 1
368 369 1
368 398 1
369 370 1
369 399 1
370 371 1
370 400 1
371 372 1
371 401 1
372 373 1
372 402 1
373 374 1
373 403 1
374 375 1
374 404 1
375 376 1
375 405 1
376 377 1
376 406 1
377 378 1
377 407 1
378 379 1
378 408 1
379 380 1
379 409 1
380 381 1
380 410 1
381 382 1
381 411 1
382 383 1
382 412 1
383 384 1
383 413 1
384 385 1
384 414 1
385 386 1
385 415 1
386 387 1
386 416 1
387 388 1
387 417 1
388 389 1
388 418 1
389 390 1
389 419 1
390 420 1
391 392 1
391 421 1
392 393 1
392 422 1
393 394 1
393 423 1
394 395 1
394 424 1
395 396 1
395 425 1
396 397 1
396 426 1
397 398 1
397 427 1
398 399 1
398 428 1
399 400 1
399 429 1
400 401 1
400 430 1
401 402 1
401 431 1
402 403 1
402 432 1
403 404 1
403 433 1
404 405 1
404 434 1
405 406 1
405 435 1
406 407 1
406 436 1
407 408 1
407 437 1
408 409 1
408 438 1
409 410 1
409 439 1
410 411 1
410 440 1
411 412 1
411 441 1
412 413 1
412 442 1
413 414 1
413 443 1
414 415 1
414 444 1
415 416 1
415 445 1
416 417 1
416 446 1
417 418 1
417 447 1
418 419 1
418 448 1
419 420 1
419 449 1
420 450 1
421 422 1
421 451 1
422 423 1
422 452 1
423 424 1
423 453 1
424 425 1
424 454 1
425 426 1
425 455 1
426 427 1
426 456 1
427 428 1
427 457 1
428 429 1
428 458 1
429 430 1
429 459 1
430 431 1
430 460 1
431 432 1
431 461 1
432 433 1
432 462 1
433 434 1
433 463 1
434 435 1
434 464 1
435 436 1
435 465 1
436 437 1
436 466 1
437 438 1
437 467 1
438 439 1
438 468 1
439 440 1
439 469 1
440 441 1
440 470 1
441 442 1
441 471 1
442 443 1
442 472 1
443 444 1
443 473 1
444 445 1
444 474 1
445 446 1
445 475 1
446 447 1
446 476 1
447 448 1
447 477 1
448 449 1
448 478 1
449 450 1
449 479 1
450 480 1
451 452 1
451 481 1
452 453 1
452 482 1
453 454 1
453 483 1
454 455 1
454 484 1
455 456 1
455 485 1
456 457 1
456 486 1
457 458 1
457 487 1
458 459 1
458 488 1
459 460 1
459 489 1
460 461 1
460 490 1
461 462 1
461 491 1
462 463 1
462 492 1
463 464 1
463 493 1
464 465 1
464 494 1
465 466 1
465 495 1
466 467 1
466 496 1
467 468 1
467 497 1
468 469 1
468 498 1
469 470 1
469 499 1
470 471 1
470 500 1
471 472 1
471 501 1
472 473 1
472 502 1
473 474 1
473 503 1
474 475 1
474 504 1
475 476 1
475 505 1
476 477 1
476 506 1
477 478 1
477 507 1
478 479 1
478 508 1
479 480 1
479 509 1
480 510 1
481 482 1
481 511 1
482 483 1
482 512 1
483 484 1
483 513 1
484 485 1
484 514 1
485 486 1
485 515 1
486 487 1
486 516 1
487 488 1
487 517 1
488 489 1
488 518 1
489 490 1
489 519 1
490 491 1
490 520 1
491 492 1
491 521 1
492 493 1
492 522 1
493 494 1
493 523 1
494 495 1
494 524 1
495 496 1
495 525 1
496 497 1
496 526 1
497 498 1
497 527 1
498 499 1
498 528 1
499 500 1
499 529 1
500 501 1
500 530 1
501 502 1
501 531 1
502 503 1
502 532 1
503 504 1
503 533 1
504 505 1
504 534 1
505 506 1
505 535 1
506 507 1
506 536 1
507 508 1
507 537 1
508 509 1
508 538 1
509 510 1
509 539 1
510 540 1
511 512 1
511 541 1
512 513 1
512 542 1
513 514 1
513 543 1
514 515 1
514 544 1
515 516 1
515 545 1
516 517 1
516 546 1
517 518 1
517 547 1
518 519 1
518 548 1
519 520 1
519 549 1
520 521 1
520 550 1
521 522 1
521 551 1
522 523 1
522 552 1
523 524 1
523 553 1
524 525 1
524 554 1
525 526 1
525 555 1
526 527 1
526 556 1
527 528 1
527 557 1
528 529 1
528 558 1
529 530 1
529 559 1
530 531 1
530 560 1
531 532 1
531 561 1
532 533 1
532 562 1
533 534 1
533 563 1
534 535 1
534 564 1
535 536 1
535 565 1
536 537 1
536 566 1
537 538 1
537 567 1
538 539 1
538 568 1
539 540 1
539 569 1
540 570 1
541 542 1
541 571 1
542 543 1
542 572 1
543 544 1
543 573 1
544 545 1
544 574 1
545 546 1
545 575 1
546 547 1
546 576 1
547 548 1
547 577 1
548 549 1
548 578 1
549 550 1
549 579 1
550 551 1
550 580 1
551 552 1
551 581 1
552 553 1
552 582 1
553 554 1
553 583 1
554 555 1
554 584 1
555 556 1
555 585 1
556 557 1
556 586 1
557 558 1
557 587 1
558 559 1
558 588 1
559 560 1
559 589 1
560 561 1
560 590 1
561 562 1
561 591 1
562 563 1
562 592 1
563 564 1
563 593 1
564 565 1
564 594 1
565 566 1
565 595 1
566 567 1
566 596 1
567 568 1
567 597 1
568 569 1
568 598 1
569 570 1
569 599 1
570 600 1
571 572 1
571 601 1
572 573 1
572 602 1
573 574 1
573 603 1
574 575 1
574 604 1
575 576 1
575 605 1
576 577 1
576 606 1
577 578 1
577 607 1
578 579 1
578 608 1
579 580 1
579 609 1
580 581 1
580 610 1
581 582 1
581 611 1
582 583 1
582 612 1
583 584 1
583 613 1
584 585 1
584 614 1
585 586 1
585 615 1
586 587 1
586 616 1
587 588 1
587 617 1
588 589 1
588 618 1
589 590 1
589 619 1
590 591 1
590 620 1
591 592 1
591 621 1
592 593 1
592 622 1
593 594 1
593 623 1
594 595 1
594 624 1
595 596 1
595 625 1
596 597 1
596 626 1
597 598 1
597 627 1
598 599 1
598 628 1
599 600 1
599 629 1
600 630 1
601 602 1
601 631 1
602 603 1
602 632 1
603 604 1
603 633 1
604 605 1
604 634 1
605 606 1
605 635 1
606 607 1
606 636 1
607 608 1
607 637 1
608 609 1
608 638 1
609 610 1
609 639 1
610 611 1
610 640 1
611 612 1
611 641 1
612 613 1
612 642 1
613 614 1
613 643 1
614 615 1
614 644 1
615 616 1
615 645 1
616 617 1
616 646 1
617 618 1
617 647 1
618 619 1
618 648 1
619 620 1
619 649 1
620 621 1
620 650 1
621 622 1
621 651 1
622 623 1
622 652 1
623 624 1
623 653 1
624 625 1
624 654 1
625 626 1
625 655 1
626 627 1
626 656 1
627 628 1
627 657 1
628 629 1
628 658 1
629 630 1
629 659 1
630 660 1
631 632 1
631 661 1
632 633 1
632 662 1
633 634 1
633 663 1
634 635 1
634 664 1
635 636 1
635 665 1
636 637 1
636 666 1
637 638 1
637 667 1
638 639 1
638 668 1
639 640 1
639 669 1
640 641 1
640 670 1
641 642 1
641 671 1
642 643 1
642 672 1
643 644 1
643 673 1
644 645 1
644 674 1
645 646 1
645 675 1
646 647 1
646 676 1
647 648 1
647 677 1
648 649 1
648 678 1
649 650 1
649 679 1
650 651 1
650 680 1
651 652 1
651 681 1
652 653 1
652 682 1
653 654 1
653 683 1
654 655 1
654 684 1
655 656 1
655 685 1
656 657 1
656 686 1
657 658 1
657 687 1
658 659 1
658 688 1
659 660 1
659 689 1
660 690 1
661 662 1
661 691 1
662 663 1
662 692 1
663 664 1
663 693 1
664 665 1
664 694 1
665 666 1
665 695 1
666 667 1
666 696 1
667 668 1
667 697 1
668 669 1
668 698 1
669 670 1
669 699 1
670 671 1
670 700 1
671 672 1
671 701 1
672 673 1
672 702 1
673 674 1
673 703 1
674 675 1
674 704 1
675 676 1
675 705 1
676 677 1
676 706 1
677 678 1
677 707 1
678 679 1
678 708 1
679 680 1
679 709 1
680 681 1
680 710 1
681 682 1
681 711 1
682 683 1
682 712 1
683 684 1
683 713 1
684 685 1
684 714 1
685 686 1
685 715 1
686 687 1
686 716 1
687 688 1
687 717 1
688 689 1
688 718 1
689 690 1
689 719 1
690 720 1
691 692 1
691 721 1
692 693 1
692 722 1
693 694 1
693 723 1
694 695 1
694 724 1
695 696 1
695 725 1
696 697 1
696 726 1
697 698 1
697 727 1
698 699 1
698 728 1
699 700 1
699 729 1
700 701 1
700 730 1
701 702 1
701 731 1
702 703 1
702 732 1
703 704 1
703 733 1
704 705 1
704 734 1
705 706 1
705 735 1
706 707 1
706 736 1
707 708 1
707 737 1
708 709 1
708 738 1
709 710 1
709 739 1
710 711 1
710 740 1
711 712 1
711 741 1
712 713 1
712 742 1
713 714 1
713 743 1
714 715 1
714 744 1
715 716 1
715 745 1
716 717 1
716 746 1
717 718 1
717 747 1
718 719 1
718 748 1
719 720 1
719 749 1
720 750 1
721 722 1
721 751 1
722 723 1
722 752 1
723 724 1
723 753 1
724 725 1
724 754 1
725 726 1
725 755 1
726 727 1
726 756 1
727 728 1
727 757 1
728 729 1
728 758 1
729 730 1
729 759 1
730 731 1
730 760 1
731 732 1
731 761 1
732 733 1
732 762 1
733 734 1
733 763 1
734 735 1
734 764 1
735 736 1
735 765 1
736 737 1
736 766 1
737 738 1
737 767 1
738 739 1
738 768 1
739 740 1
739 769 1
740 741 1
740 770 1
741 742 1
741 771 1
742 743 1
742 772 1
743 744 1
743 773 1
744 745 1
744 774 1
745 746 1
745 775 1
746 747 1
746 776 1
747 748 1
747 777 1
748 749 1
748 778 1
749 750 1
749 779 1
750 780 1
751 752 1
751 781 1
752 753 1
752 782 1
753 754 1
753 783 1
754 755 1
754 784 1
755 756 1
755 785 1
756 757 1
756 786 1
757 758 1
757 787 1
758 759 1
758 788 1
759 760 1
759 789 1
760 761 1
760 790 1
761 762 1
761 791 1
762 763 1
762 792 1
763 764 1
763 793 1
764 765 1
764 794 1
765 766 1
765 795 1
766 767 1
766 796 1
767 768 1
767 797 1
768 769 1
768 798 1
769 770 1
769 799 1
770 771 1
770 800 1
771 772 1
771 801 1
772 773 1
772 802 1
773 774 1
773 803 1
774 775 1
774 804 1
775 776 1
775 805 1
776 777 1
776 806 1
777 778 1
777 807 1
778 779 1
778 808 1
779 780 1
779 809 1
780 810 1
781 782 1
781 811 1
782 783 1
782 812 1
783 784 1
783 813 1
784 785 1
784 814 1
785 786 1
785 815 1
786 787 1
786 816 1
787 788 1
787 817 1
788 789 1
788 818 1
789 790 1
789 819 1
790 791 1
790 820 1
791 792 1
791 821 1
792 793 1
792 822 1
793 794 1
793 823 1
794 795 1
794 824 1
795 796 1
795 825 1
796 797 1
796 826 1
797 798 1
797 827 1
798 799 1
798 828 1
799 800 1
799 829 1
800 801 1
800 830 1
801 802 1
801 831 1
802 803 1
802 832 1
803 804 1
803 833 1
804 805 1
804 834 1
805 806 1
805 835 1
806 807 1
806 836 1
807 808 1
807 837 1
808 809 1
808 838 1
809 810 1
809 839 1
810 840 1
811 812 1
811 841 1
812 813 1
812 842 1
813 814 1
813 843 1
814 815 1
814 844 1
815 816 1
815 845 1
816 817 1
816 846 1
817 818 1
817 847 1
818 819 1
818 848 1
819 820 1
819 849 1
820 821 1
820 850 1
821 822 1
821 851 1
822 823 1
822 852 1
823 824 1
823 853 1
824 825 1
824 854 1
825 826 1
825 855 1
826 827 1
826 856 1
827 828 1
827 857 1
828 829 1
828 858 1
829 830 1
829 859 1
830 831 1
830 860 1
831 832 1
831 861 1
832 833 1
832 862 1
833 834 1
833 863 1
834 835 1
834 864 1
835 836 1
835 865 1
836 837 1
836 866 1
837 838 1
837 867 1
838 839 1
838 868 1
839 840 1
839 869 1
840 870 1
841 842 1
841 871 1
842 843 1
842 872 1
843 844 1
843 873 1
844 845 1
844 874 1
845 846 1
845 875 1
846 847 1
846 876 1
847 848 1
847 877 1
848 849 1
848 878 1
849 850 1
849 879 1
850 851 1
850 880 1
851 852 1
851 881 1
852 853 1
852 882 1
853 854 1
853 883 1
854 855 1
854 884 1
855 856 1
855 885 1
856 857 1
856 886 1
857 858 1
857 887 1
858 859 1
858 888 1
859 860 1
859 889 1
860 861 1
860 890 1
861 862 1
861 891 1
862 863 1
862 892 1
863 864 1
863 893 1
864 865 1
864 894 1
865 866 1
865 895 1
866 867 1
866 896 1
867 868 1
867 897 1
868 869 1
868 898 1
869 870 1
869 899 1
870 900 1
871 872 1
872 873 1
873 874 1
874 875 1
875 876 1
876 877 1
877 878 1
878 879 1
879 880 1
880 881 1
881 882 1
882 883 1
883 884 1
884 885 1
885 886 1
886 887 1
887 888 1
888 889 1
889 890 1
890 891 1
891 892 1
892 893 1
893 894 1
894 895 1
895 896 1
896 897 1
897 898 1
898 899 1
899 900 1
